
units real
atom_style molecular
boundary f f f

pair_style lj/cut 14.0
bond_style harmonic
angle_style harmonic
dihedral_style opls
improper_style harmonic
special_bonds lj 0.0 0.0 0.5

read_data unbreakable.data
Reading data file ...
  orthogonal box = (-60 -40 -40) to (60 40 40)
  2 by 2 by 2 MPI processor grid
  reading atoms ...
  700 atoms
  scanning bonds ...
  3 = max bonds/atom
  scanning angles ...
  3 = max angles/atom
  scanning dihedrals ...
  12 = max dihedrals/atom
  scanning impropers ...
  3 = max impropers/atom
  orthogonal box = (-60 -40 -40) to (60 40 40)
  2 by 2 by 2 MPI processor grid
  reading bonds ...
  1035 bonds
  reading angles ...
  2040 angles
  reading dihedrals ...
  4030 dihedrals
  reading impropers ...
  670 impropers
Finding 1-2 1-3 1-4 neighbors ...
  special bond factors lj:    0        0        0.5     
  special bond factors coul:  0        0        0       
     3 = max # of 1-2 neighbors
     6 = max # of 1-3 neighbors
    18 = max # of 1-4 neighbors
    18 = max # of special neighbors
  special bonds CPU = 0.002 seconds
  read_data CPU = 0.054 seconds
include unbreakable.inc
# LAMMPS Input File (License CC BY 4.0)
# By Simon Gravelle, Jacob R. Gissinger, and Axel Kohlmeyer
# The DOI will be added upon publication
# Find more on GitHub: https://github.com/lammpstutorials

pair_coeff 1 1 0.066 3.4
bond_coeff 1 469 1.4
angle_coeff 1 63 120
dihedral_coeff 1 0 7.25 0 0
improper_coeff 1 5 180

group carbon_atoms type 1
700 atoms in group carbon_atoms
variable xmax equal bound(carbon_atoms,xmax)-0.5
variable xmin equal bound(carbon_atoms,xmin)+0.5
region rtop block ${xmax} INF INF INF INF INF
region rtop block 27.37 INF INF INF INF INF
region rbot block INF ${xmin} INF INF INF INF
region rbot block INF -27.37 INF INF INF INF
region rmid block ${xmin} ${xmax} INF INF INF INF
region rmid block -27.37 ${xmax} INF INF INF INF
region rmid block -27.37 27.37 INF INF INF INF

group cnt_top region rtop
10 atoms in group cnt_top
group cnt_bot region rbot
10 atoms in group cnt_bot
group cnt_mid region rmid
680 atoms in group cnt_mid
set group cnt_top mol 1
Setting atom values ...
  10 settings made for mol
set group cnt_bot mol 2
Setting atom values ...
  10 settings made for mol
set group cnt_mid mol 3
Setting atom values ...
  680 settings made for mol

variable xmax_del equal ${xmax}-2
variable xmax_del equal 27.37-2
variable xmin_del equal ${xmin}+2
variable xmin_del equal -27.37+2
region rdel block ${xmin_del} ${xmax_del} INF INF INF INF
region rdel block -25.37 ${xmax_del} INF INF INF INF
region rdel block -25.37 25.37 INF INF INF INF
group rdel region rdel
630 atoms in group rdel
delete_atoms random fraction 0.02 no rdel NULL 2793 bond yes
WARNING: Ignoring 'compress yes' for molecular system (src/src/delete_atoms.cpp:141)
Deleted 7 atoms, new total = 693
Deleted 21 bonds, new total = 1014
Deleted 62 angles, new total = 1978
Deleted 164 dihedrals, new total = 3866
Deleted 27 impropers, new total = 643

reset_atoms id sort yes
Resetting atom IDs ...
Generated 0 of 0 mixed pair_coeff terms from geometric mixing rule
Neighbor list info ...
  update: every = 1 steps, delay = 0 steps, check = yes
  max neighbors/atom: 2000, page size: 100000
  master list distance cutoff = 16
  ghost atom cutoff = 16
  binsize = 8, bins = 15 10 10
  1 neighbor lists, perpetual/occasional/extra = 1 0 0
  (1) pair lj/cut, perpetual
      attributes: half, newton on
      pair build: half/bin/newton
      stencil: half/bin/3d
      bin: standard
Finding 1-2 1-3 1-4 neighbors ...
  special bond factors lj:    0        0        0.5     
  special bond factors coul:  0        0        0       
     3 = max # of 1-2 neighbors
     6 = max # of 1-3 neighbors
    18 = max # of 1-4 neighbors
    18 = max # of special neighbors
  special bonds CPU = 0.001 seconds
velocity cnt_mid create 300 48455 mom yes rot yes

fix mynve1 cnt_top nve
fix mynve2 cnt_bot nve
fix mynvt cnt_mid nvt temp 300 300 100

fix mysf1 cnt_top setforce 0 0 0
fix mysf2 cnt_bot setforce 0 0 0
velocity cnt_top set 0 0 0
velocity cnt_bot set 0 NULL NULL

variable Lcnt equal xcm(cnt_top,x)-xcm(cnt_bot,x)
variable Fcnt equal f_mysf1[1]-f_mysf2[1]

# Add trajectory dump
dump trajectory all custom 100 ../output/trajectory.lammpstrj id mol type x y z

# Remove this line completely:
# dump bonds all local 100 bonds.dat index c_bond[*][1] c_bond[*][2]

# --- Temperature CSV output for complete simulation ---
variable temp_all equal temp
fix temp_output all print 1 "$(step),${temp_all}" file ../output/temperature.csv screen no title "Step,Temperature"


# --- Use a consistent thermo_style for all runs ---
thermo_style custom step temp etotal v_Lcnt
thermo 100  # or 10 or 1 for higher resolution

compute Tmid cnt_mid temp
thermo 300
thermo_style custom step temp etotal v_Lcnt
thermo_modify temp Tmid line yaml
WARNING: Temperature for thermo pressure is not for group all (src/src/thermo.cpp:533)

timestep 0.05
run 300

CITE-CITE-CITE-CITE-CITE-CITE-CITE-CITE-CITE-CITE-CITE-CITE-CITE

Your simulation uses code contributions which should be cited:

- Type Label Framework: https://doi.org/10.1021/acs.jpcb.3c08419

@Article{Gissinger24,
 author = {Jacob R. Gissinger, Ilia Nikiforov, Yaser Afshar, Brendon Waters, Moon-ki Choi, Daniel S. Karls, Alexander Stukowski, Wonpil Im, Hendrik Heinz, Axel Kohlmeyer, and Ellad B. Tadmor},
 title = {Type Label Framework for Bonded Force Fields in LAMMPS},
 journal = {J. Phys. Chem. B},
 year =    2024,
 volume =  128,
 number =  13,
 pages =   {3282â€“-3297}
}

CITE-CITE-CITE-CITE-CITE-CITE-CITE-CITE-CITE-CITE-CITE-CITE-CITE

Generated 0 of 0 mixed pair_coeff terms from geometric mixing rule
Per MPI rank memory allocation (min/avg/max) = 12.82 | 12.82 | 12.82 Mbytes
---
keywords: ['Step', 'Temp', 'TotEng', 'v_Lcnt', ]
data:
  - [0, 300, 3393.22803180669, 55.472, ]
  - [300, 170.041004365544, 3395.59661128559, 55.472, ]
...
Loop time of 0.129948 on 8 procs for 300 steps with 693 atoms

Performance: 9.973 ns/day, 2.406 hours/ns, 2308.615 timesteps/s, 1.600 Matom-step/s
98.6% CPU use with 8 MPI tasks x 1 OpenMP threads

MPI task timing breakdown:
Section |  min time  |  avg time  |  max time  |%varavg| %total
---------------------------------------------------------------
Pair    | 0.009278   | 0.040172   | 0.077371   |  11.4 | 30.91
Bond    | 0.031682   | 0.036603   | 0.043131   |   2.0 | 28.17
Neigh   | 0          | 0          | 0          |   0.0 |  0.00
Comm    | 0.0075935  | 0.046993   | 0.08314    |  10.7 | 36.16
Output  | 0.00057405 | 0.00066441 | 0.00073015 |   0.0 |  0.51
Modify  | 0.0034266  | 0.0040742  | 0.005382   |   0.9 |  3.14
Other   |            | 0.001442   |            |       |  1.11

Nlocal:         86.625 ave          91 max          82 min
Histogram: 1 0 2 0 1 0 1 2 0 1
Nghost:        457.375 ave         462 max         453 min
Histogram: 1 0 2 1 0 1 0 2 0 1
Neighs:        12749.6 ave       22701 max        3000 min
Histogram: 2 0 0 2 0 0 2 0 0 2

Total # of neighbors = 101997
Ave neighs/atom = 147.18182
Ave special neighs/atom = 17.064935
Neighbor list builds = 0
Dangerous builds = 0

velocity cnt_top set 0.003 0 0
velocity cnt_bot set -0.003 0 0

run ${LEFT_FORCE_DURATION}
run 100000
Generated 0 of 0 mixed pair_coeff terms from geometric mixing rule
Per MPI rank memory allocation (min/avg/max) = 14.07 | 14.07 | 14.07 Mbytes
---
keywords: ['Step', 'Temp', 'TotEng', 'v_Lcnt', ]
data:
  - [300, 170.041004365544, 3395.59661128559, 55.472, ]
  - [600, 201.342613380623, 3420.20245308708, 55.5620000000009, ]
  - [900, 218.485901761393, 3453.39334903756, 55.6520000000017, ]
  - [1200, 219.831379826865, 3497.04939538267, 55.7420000000026, ]
  - [1500, 229.395643456403, 3533.38347981494, 55.8320000000034, ]
  - [1800, 242.753674844925, 3575.79396975134, 55.9220000000043, ]
  - [2100, 238.456997305669, 3608.94506116996, 56.0120000000051, ]
  - [2400, 259.192779679034, 3638.45495714061, 56.102000000006, ]
  - [2700, 277.871051906883, 3671.97428749206, 56.1920000000069, ]
  - [3000, 253.99100884388, 3707.64327653812, 56.2820000000077, ]
  - [3300, 283.236429335505, 3753.37304473669, 56.3720000000086, ]
  - [3600, 282.496983720919, 3787.67151780911, 56.4620000000094, ]
  - [3900, 284.586127737581, 3823.36998775277, 56.5520000000103, ]
  - [4200, 268.315445825265, 3854.71322354677, 56.6420000000111, ]
  - [4500, 270.342172814729, 3885.82095671702, 56.732000000012, ]
  - [4800, 253.07149219096, 3924.20575516763, 56.8220000000128, ]
  - [5100, 269.572967804441, 3956.1275623456, 56.9120000000137, ]
  - [5400, 264.942327283541, 3987.71425772333, 57.0020000000146, ]
  - [5700, 253.803261486837, 4016.6221728932, 57.0920000000154, ]
  - [6000, 242.478497075142, 4057.19710358307, 57.1820000000163, ]
  - [6300, 255.89022815661, 4109.96634857513, 57.2720000000171, ]
  - [6600, 263.000823657918, 4180.07655599368, 57.362000000018, ]
  - [6900, 284.680757364389, 4254.05442035857, 57.4520000000188, ]
  - [7200, 265.080827509385, 4333.000959609, 57.5420000000197, ]
  - [7500, 288.653846966303, 4412.91174304704, 57.6320000000205, ]
  - [7800, 288.62273163803, 4489.02859997385, 57.7220000000214, ]
  - [8100, 311.995717640976, 4564.22490203698, 57.8120000000223, ]
  - [8400, 311.655069094141, 4633.30766725309, 57.9020000000231, ]
  - [8700, 339.52173777763, 4710.53565331386, 57.992000000024, ]
  - [9000, 337.134327329302, 4786.47626038751, 58.0820000000248, ]
  - [9300, 343.491645348028, 4854.7644148638, 58.1720000000257, ]
  - [9600, 331.193353308573, 4908.48266052601, 58.2620000000265, ]
  - [9900, 337.534787806606, 4954.99822701209, 58.3520000000274, ]
  - [10200, 303.548038036514, 4994.17303611967, 58.4420000000282, ]
  - [10500, 307.05731672585, 5041.88514432274, 58.5320000000291, ]
  - [10800, 288.452933434983, 5098.13222603807, 58.62200000003, ]
  - [11100, 297.34574802988, 5150.19828314711, 58.7120000000308, ]
  - [11400, 279.171512456771, 5200.69324667163, 58.8020000000317, ]
  - [11700, 269.28052756618, 5261.25003385715, 58.8920000000325, ]
  - [12000, 283.064189485645, 5330.39677569348, 58.9820000000334, ]
  - [12300, 285.585573144829, 5406.35046155605, 59.0720000000343, ]
  - [12600, 280.414339463193, 5495.31062985885, 59.1620000000351, ]
  - [12900, 284.488362405747, 5587.36267304287, 59.2520000000359, ]
  - [13200, 290.499483746799, 5685.5667232222, 59.3420000000368, ]
  - [13500, 284.700134812602, 5782.99981093516, 59.4320000000377, ]
  - [13800, 286.616683885994, 5892.1495636585, 59.5220000000385, ]
  - [14100, 287.327026203333, 6007.11506536558, 59.6120000000394, ]
  - [14400, 328.705924050029, 6125.64980652809, 59.7020000000402, ]
  - [14700, 329.258259142845, 6242.1951308145, 59.7920000000411, ]
  - [15000, 343.668043874266, 6351.29016750822, 59.8820000000419, ]
  - [15300, 335.690487733549, 6447.53921003366, 59.9720000000428, ]
  - [15600, 348.116376300491, 6530.77501737612, 60.0620000000437, ]
  - [15900, 319.714528544477, 6604.45190813311, 60.1520000000445, ]
  - [16200, 305.230981438641, 6681.88055668499, 60.2420000000454, ]
  - [16500, 296.357779360847, 6769.07892792876, 60.3320000000462, ]
  - [16800, 282.872525612719, 6859.79842327843, 60.4220000000471, ]
  - [17100, 281.839296882719, 6957.17644949035, 60.5120000000479, ]
  - [17400, 287.721108984546, 7051.21281333756, 60.6020000000488, ]
  - [17700, 284.888945578578, 7149.78312426907, 60.6920000000497, ]
  - [18000, 276.885919575934, 7251.51463504078, 60.7820000000505, ]
  - [18300, 278.382004165422, 7367.12120184624, 60.8720000000514, ]
  - [18600, 281.851011204136, 7492.15731339435, 60.9620000000522, ]
  - [18900, 287.721455293134, 7623.37491710971, 61.0520000000531, ]
  - [19200, 289.416200081146, 7754.77749637922, 61.1420000000539, ]
  - [19500, 279.550506573127, 7896.05641482093, 61.2320000000548, ]
  - [19800, 306.628363500076, 8041.79430995227, 61.3220000000556, ]
  - [20100, 307.469280601555, 8196.69430100524, 61.4120000000565, ]
  - [20400, 320.500623791139, 8351.32309852791, 61.5020000000574, ]
  - [20700, 329.667740217896, 8496.83873797008, 61.5920000000582, ]
  - [21000, 338.57620328443, 8636.99151221658, 61.6820000000591, ]
  - [21300, 338.536230811801, 8768.77442387068, 61.7720000000599, ]
  - [21600, 332.417731404997, 8896.59491322831, 61.8620000000608, ]
  - [21900, 327.498759323917, 9022.27291693842, 61.9520000000616, ]
  - [22200, 313.802750073429, 9142.16450843779, 62.0420000000625, ]
  - [22500, 307.466941107077, 9266.68538364422, 62.1320000000634, ]
  - [22800, 300.627620551241, 9390.28275112129, 62.2220000000642, ]
  - [23100, 281.035994596054, 9516.38157234769, 62.3120000000651, ]
  - [23400, 274.003681403612, 9641.44711920898, 62.4020000000659, ]
  - [23700, 284.718799247457, 9773.31053322156, 62.4920000000668, ]
  - [24000, 280.547079037856, 9916.6611735713, 62.5820000000676, ]
  - [24300, 283.722535951736, 10072.0157099977, 62.6720000000685, ]
  - [24600, 288.566821387656, 10240.6754071252, 62.7620000000693, ]
  - [24900, 293.045835183673, 10414.3694193789, 62.8520000000702, ]
  - [25200, 287.821034491587, 10588.0057002775, 62.9420000000711, ]
  - [25500, 294.354641475833, 10759.1640843517, 63.0320000000719, ]
  - [25800, 298.001174835254, 10946.1761646061, 63.1220000000728, ]
  - [26100, 308.568616307756, 11126.0431314517, 63.2120000000736, ]
  - [26400, 313.726316123575, 11308.2718115542, 63.3020000000745, ]
  - [26700, 328.897468080105, 11489.4776758954, 63.3920000000753, ]
  - [27000, 344.091531107284, 11666.1432632781, 63.4820000000762, ]
  - [27300, 334.323155261404, 11837.5444171782, 63.572000000077, ]
  - [27600, 340.169942939765, 12006.8721649203, 63.6620000000779, ]
  - [27900, 319.091506659561, 12172.6169086099, 63.7520000000785, ]
  - [28200, 316.47345850298, 12333.3726811671, 63.8420000000783, ]
  - [28500, 299.898400209613, 12489.9884058285, 63.9320000000781, ]
  - [28800, 292.629309155818, 12645.3402464047, 64.0220000000779, ]
  - [29100, 274.982220143897, 12804.9581587595, 64.1120000000777, ]
  - [29400, 285.662790428352, 12968.5016467209, 64.2020000000775, ]
  - [29700, 276.204551348623, 13147.5582915003, 64.292000000077, ]
  - [30000, 278.472178089148, 13335.7900000975, 64.3820000000757, ]
  - [30300, 296.589644883414, 13534.4644458994, 64.4720000000744, ]
  - [30600, 301.073118938354, 13738.6276570519, 64.5620000000732, ]
  - [30900, 297.751348038337, 13942.4438761888, 64.6520000000719, ]
  - [31200, 287.120787334759, 14148.5234685277, 64.7420000000706, ]
  - [31500, 294.035893103176, 14361.3962196355, 64.8320000000693, ]
  - [31800, 305.382498383406, 14574.7928058438, 64.9220000000681, ]
  - [32100, 296.630421126483, 14795.0715897121, 65.0120000000668, ]
  - [32400, 310.834618987812, 15020.1725680686, 65.1020000000655, ]
  - [32700, 326.042101725804, 15238.3586674745, 65.1920000000642, ]
  - [33000, 333.661199162786, 15448.2194794093, 65.2820000000629, ]
  - [33300, 340.184956433981, 15650.5805871737, 65.3720000000617, ]
  - [33600, 326.08074730036, 15853.5464603093, 65.4620000000604, ]
  - [33900, 322.516386175741, 16051.3441090829, 65.5520000000591, ]
  - [34200, 302.216014434753, 16251.9293121524, 65.6420000000578, ]
  - [34500, 300.224118704633, 16442.8282639892, 65.7320000000566, ]
  - [34800, 294.060577895515, 16637.6489690543, 65.8220000000553, ]
  - [35100, 281.817852122671, 16841.9703671027, 65.912000000054, ]
  - [35400, 279.108593664033, 17052.9068021728, 66.0020000000527, ]
  - [35700, 286.416121089143, 17272.1839172991, 66.0920000000515, ]
  - [36000, 286.321327591853, 17496.6931869398, 66.1820000000502, ]
  - [36300, 289.191632210501, 17724.2905997229, 66.2720000000489, ]
  - [36600, 281.789919329476, 17957.5935135713, 66.3620000000476, ]
  - [36900, 288.386218293803, 18197.7559688707, 66.4520000000464, ]
  - [37200, 280.393513330585, 18442.0344293255, 66.5420000000451, ]
  - [37500, 283.627132968023, 18700.9614053789, 66.6320000000438, ]
  - [37800, 313.226452846538, 18959.2458656566, 66.7220000000425, ]
  - [38100, 309.210650356176, 19222.689942039, 66.8120000000413, ]
  - [38400, 320.374008734135, 19474.8725859504, 66.90200000004, ]
  - [38700, 329.604748857123, 19724.5407973173, 66.9920000000387, ]
  - [39000, 338.190547871295, 19965.0012589219, 67.0820000000374, ]
  - [39300, 323.382856450507, 20201.7245531377, 67.1720000000361, ]
  - [39600, 325.694899997248, 20438.0874595046, 67.2620000000349, ]
  - [39900, 322.472047327181, 20680.4421495134, 67.3520000000336, ]
  - [40200, 304.061464098171, 20913.4657528544, 67.4420000000323, ]
  - [40500, 298.979507051958, 21143.7408924418, 67.532000000031, ]
  - [40800, 287.441635420256, 21380.4954251158, 67.6220000000298, ]
  - [41100, 290.742905924272, 21626.5567093813, 67.7120000000285, ]
  - [41400, 275.30618138577, 21876.7669349712, 67.8020000000272, ]
  - [41700, 285.151080835223, 22131.810136689, 67.892000000026, ]
  - [42000, 275.562213360733, 22390.2119616426, 67.9820000000247, ]
  - [42300, 283.9795158502, 22656.0852871474, 68.0720000000234, ]
  - [42600, 290.488040511816, 22931.3560246709, 68.1620000000221, ]
  - [42900, 293.728127875927, 23214.5793706388, 68.2520000000208, ]
  - [43200, 292.489431240292, 23499.7043805517, 68.3420000000196, ]
  - [43500, 298.387542901171, 23794.5665167291, 68.4320000000183, ]
  - [43800, 312.78382845644, 24091.8402143844, 68.522000000017, ]
  - [44100, 317.635056807506, 24383.5555007453, 68.6120000000157, ]
  - [44400, 316.056313406515, 24670.4846790642, 68.7020000000145, ]
  - [44700, 321.603836881218, 24954.1250190527, 68.7920000000132, ]
  - [45000, 333.027688409996, 25232.706643823, 68.8820000000119, ]
  - [45300, 337.871253301047, 25513.6510449943, 68.9720000000107, ]
  - [45600, 331.266316299868, 25789.9253595378, 69.0620000000094, ]
  - [45900, 316.323116733393, 26064.4631568878, 69.1520000000081, ]
  - [46200, 325.542026647228, 26334.9660473551, 69.2420000000068, ]
  - [46500, 303.243733033088, 26605.4321149252, 69.3320000000055, ]
  - [46800, 287.976689053723, 26877.6487260013, 69.4220000000043, ]
  - [47100, 288.881242745974, 27159.2439629, 69.512000000003, ]
  - [47400, 284.646082616151, 27451.184000987, 69.6020000000017, ]
  - [47700, 287.21184608989, 27749.6553810805, 69.6920000000004, ]
  - [48000, 275.422534191094, 28047.7183030005, 69.7819999999992, ]
  - [48300, 291.621146861888, 28352.2742063628, 69.8719999999979, ]
  - [48600, 283.889858418766, 28665.0238590214, 69.9619999999966, ]
  - [48900, 294.373500765623, 28983.4580574567, 70.0519999999953, ]
  - [49200, 277.229581978169, 29310.565874644, 70.1419999999941, ]
  - [49500, 296.401145036536, 29639.1627692623, 70.2319999999928, ]
  - [49800, 322.24187099558, 29973.8555952162, 70.3219999999915, ]
  - [50100, 316.433048520234, 30304.6308736486, 70.4119999999902, ]
  - [50400, 324.541425074513, 30629.5112623664, 70.501999999989, ]
  - [50700, 333.230698603359, 30955.8989217158, 70.5919999999877, ]
  - [51000, 344.605793531699, 31273.2624553147, 70.6819999999864, ]
  - [51300, 326.046806553138, 31581.9436692957, 70.7719999999851, ]
  - [51600, 315.282790620683, 31893.6093454485, 70.8619999999839, ]
  - [51900, 298.122346911817, 32199.1824818478, 70.9519999999826, ]
  - [52200, 303.866556235031, 32506.9190398673, 71.0419999999813, ]
  - [52500, 293.639341271018, 32817.6130310271, 71.13199999998, ]
  - [52800, 283.249207705101, 33135.4339723432, 71.2219999999788, ]
  - [53100, 290.056252651674, 33466.441463343, 71.3119999999775, ]
  - [53400, 289.696928886938, 33803.6272965677, 71.4019999999762, ]
  - [53700, 305.708953241005, 34139.3356536642, 71.4919999999749, ]
  - [54000, 285.103399012284, 34474.908657278, 71.5819999999736, ]
  - [54300, 298.751529420238, 34818.0197049016, 71.6719999999724, ]
  - [54600, 286.322398435412, 35166.1826578282, 71.7619999999711, ]
  - [54900, 288.150308487302, 35526.5255380343, 71.8519999999698, ]
  - [55200, 290.741164265047, 35890.3039978108, 71.9419999999685, ]
  - [55500, 307.072282525822, 36263.1587379832, 72.0319999999673, ]
  - [55800, 328.589340886463, 36635.2874004075, 72.121999999966, ]
  - [56100, 326.721927743237, 37003.3393917211, 72.2119999999647, ]
  - [56400, 331.115906839968, 37363.232869433, 72.3019999999635, ]
  - [56700, 333.177696860169, 37716.277622684, 72.3919999999622, ]
  - [57000, 320.807322883123, 38067.3665735038, 72.4819999999609, ]
  - [57300, 317.285898143586, 38413.5102792483, 72.5719999999596, ]
  - [57600, 298.859830569474, 38763.0768505468, 72.6619999999583, ]
  - [57900, 301.594856689057, 39107.6671993921, 72.7519999999571, ]
  - [58200, 294.419086865683, 39456.5406108742, 72.8419999999558, ]
  - [58500, 285.983341578282, 39808.368915634, 72.9319999999545, ]
  - [58800, 278.375887136118, 40174.9714441864, 73.0219999999532, ]
  - [59100, 277.447180867401, 40541.3845911793, 73.111999999952, ]
  - [59400, 294.635510788535, 40917.1457503876, 73.2019999999507, ]
  - [59700, 293.535194861233, 41288.7526584772, 73.2919999999494, ]
  - [60000, 291.324266795811, 41666.7141690051, 73.3819999999481, ]
  - [60300, 284.838438275765, 42051.0424937968, 73.4719999999469, ]
  - [60600, 297.856141695861, 42448.0773548328, 73.5619999999456, ]
  - [60900, 298.373377952685, 42851.1824323367, 73.6519999999443, ]
  - [61200, 307.72658143406, 43255.6957728385, 73.741999999943, ]
  - [61500, 318.265213501616, 43664.2302492673, 73.8319999999418, ]
  - [61800, 317.076585502874, 44063.9481727916, 73.9219999999405, ]
  - [62100, 327.02187543228, 44460.1001058956, 74.0119999999392, ]
  - [62400, 323.334211847808, 44852.3561483296, 74.1019999999379, ]
  - [62700, 322.521783190661, 45249.6208603736, 74.1919999999367, ]
  - [63000, 323.742429209635, 45643.777900813, 74.2819999999354, ]
  - [63300, 329.64480282745, 46030.8883078681, 74.3719999999341, ]
  - [63600, 312.156430993616, 46410.1066284561, 74.4619999999328, ]
  - [63900, 287.847123388126, 46788.0845629081, 74.5519999999316, ]
  - [64200, 286.408096545509, 47172.3407811521, 74.6419999999303, ]
  - [64500, 290.407554860838, 47570.7535413502, 74.731999999929, ]
  - [64800, 281.066107014365, 47974.7388702295, 74.8219999999277, ]
  - [65100, 284.295585068748, 48384.5428962046, 74.9119999999265, ]
  - [65400, 269.608571597378, 48804.377068387, 75.0019999999252, ]
  - [65700, 289.896938216625, 49223.414265243, 75.0919999999239, ]
  - [66000, 288.792477208202, 49643.2260714255, 75.1819999999226, ]
  - [66300, 288.251425813436, 50073.0011879213, 75.2719999999213, ]
  - [66600, 285.39680710981, 50505.6647950763, 75.3619999999201, ]
  - [66900, 303.686464908416, 50944.4155228586, 75.4519999999188, ]
  - [67200, 306.026302948372, 51386.4517338018, 75.5419999999175, ]
  - [67500, 313.413254579003, 51823.2961547727, 75.6319999999162, ]
  - [67800, 323.373454341183, 52259.8424430866, 75.721999999915, ]
  - [68100, 324.030797752032, 52698.2350058662, 75.8119999999137, ]
  - [68400, 329.480094019666, 53137.8836628243, 75.9019999999124, ]
  - [68700, 329.753661281672, 53573.1323308254, 75.9919999999111, ]
  - [69000, 308.37974834442, 53994.9922278899, 76.0819999999099, ]
  - [69300, 310.989465309396, 54416.8867530403, 76.1719999999086, ]
  - [69600, 290.479096086798, 54834.0226229097, 76.2619999999073, ]
  - [69900, 292.097246231379, 55253.9165329121, 76.351999999906, ]
  - [70200, 285.354150867266, 55684.1984234434, 76.4419999999048, ]
  - [70500, 280.998077723979, 56125.5389777124, 76.5319999999035, ]
  - [70800, 291.653072223775, 56576.0481089803, 76.6219999999022, ]
  - [71100, 285.175694667177, 57029.4203474672, 76.7119999999009, ]
  - [71400, 304.442716942281, 57483.1855669499, 76.8019999998997, ]
  - [71700, 275.064881974308, 57940.2741562154, 76.8919999998984, ]
  - [72000, 287.831160337931, 58399.762844534, 76.9819999998971, ]
  - [72300, 295.83714443276, 58875.0906403035, 77.0719999998959, ]
  - [72600, 291.401028712154, 59351.6176316962, 77.1619999998946, ]
  - [72900, 305.157720749508, 59830.1221319944, 77.2519999998933, ]
  - [73200, 311.057025190523, 60303.6462828388, 77.341999999892, ]
  - [73500, 317.225731910036, 60777.2869118803, 77.4319999998907, ]
  - [73800, 323.317890338919, 61252.2475919523, 77.5219999998895, ]
  - [74100, 320.358739564756, 61729.9127442565, 77.6119999998882, ]
  - [74400, 332.103224449468, 62203.4958455297, 77.7019999998869, ]
  - [74700, 314.128751333734, 62669.8364802465, 77.7919999998856, ]
  - [75000, 316.019983376374, 63131.4935866637, 77.8819999998844, ]
  - [75300, 299.465882448136, 63590.318545004, 77.9719999998831, ]
  - [75600, 287.774351375902, 64046.2311512473, 78.0619999998818, ]
  - [75900, 283.69937307193, 64511.9888099672, 78.1519999998805, ]
  - [76200, 279.902713881346, 64995.2431585708, 78.2419999998793, ]
  - [76500, 299.14690017897, 65480.3386330418, 78.331999999878, ]
  - [76800, 286.746429960135, 65970.413592743, 78.4219999998767, ]
  - [77100, 275.220667853701, 66460.6639079931, 78.5119999998754, ]
  - [77400, 291.101281167895, 66957.6021499587, 78.6019999998742, ]
  - [77700, 282.813054548863, 67460.7888590758, 78.6919999998729, ]
  - [78000, 285.550803688175, 67974.9176502486, 78.7819999998716, ]
  - [78300, 303.471969573394, 68489.7764198678, 78.8719999998703, ]
  - [78600, 312.006869100342, 69006.7514968838, 78.9619999998691, ]
  - [78900, 310.377734583891, 69512.6235392404, 79.0519999998678, ]
  - [79200, 319.084019861101, 70022.9504652871, 79.1419999998665, ]
  - [79500, 311.263042185206, 70531.2364671265, 79.2319999998652, ]
  - [79800, 327.362662912774, 71046.727557663, 79.3219999998639, ]
  - [80100, 322.158946125762, 71559.4834896899, 79.4119999998627, ]
  - [80400, 322.781376920206, 72070.5720485655, 79.5019999998614, ]
  - [80700, 320.467212649178, 72567.7975131589, 79.5919999998601, ]
  - [81000, 315.343201350132, 73065.5474221828, 79.6819999998589, ]
  - [81300, 298.792224707299, 73558.7688547151, 79.7719999998576, ]
  - [81600, 278.304114827655, 74067.6433542627, 79.8619999998563, ]
  - [81900, 279.833430208298, 74582.6069288206, 79.951999999855, ]
  - [82200, 296.158831144009, 75107.4870659596, 80.0419999998538, ]
  - [82500, 280.008229269189, 75634.5533834061, 80.1319999998525, ]
  - [82800, 280.298924696585, 76162.5211981893, 80.2219999998512, ]
  - [83100, 276.700881768768, 76697.2531233967, 80.3119999998499, ]
  - [83400, 290.068576293219, 77243.6629100633, 80.4019999998486, ]
  - [83700, 290.02991090871, 77791.8630330209, 80.4919999998474, ]
  - [84000, 310.569569780137, 78348.8973880266, 80.5819999998461, ]
  - [84300, 314.977934805594, 78900.2207382285, 80.6719999998448, ]
  - [84600, 309.25027260093, 79445.8790286804, 80.7619999998436, ]
  - [84900, 305.435995645237, 79991.3017244387, 80.8519999998423, ]
  - [85200, 323.385056762351, 80538.870435718, 80.941999999841, ]
  - [85500, 323.597982797339, 81092.7207600217, 81.0319999998397, ]
  - [85800, 329.571193441292, 81643.1998862289, 81.1219999998384, ]
  - [86100, 314.877084726799, 82188.9865019537, 81.2119999998372, ]
  - [86400, 301.89941580057, 82728.1451368274, 81.3019999998359, ]
  - [86700, 302.019306259025, 83264.9714093921, 81.3919999998346, ]
  - [87000, 293.031154035346, 83803.0384382447, 81.4819999998333, ]
  - [87300, 284.750152685497, 84353.2519278827, 81.5719999998321, ]
  - [87600, 287.000145767827, 84906.5566228477, 81.6619999998308, ]
  - [87900, 287.886968573911, 85468.5662344074, 81.7519999998295, ]
  - [88200, 283.278301855307, 86028.4490352724, 81.8419999998282, ]
  - [88500, 286.587208307847, 86594.353372995, 81.931999999827, ]
  - [88800, 298.925919311949, 87167.8386011303, 82.0219999998257, ]
  - [89100, 292.28134717384, 87750.6829066273, 82.1119999998244, ]
  - [89400, 301.02966184928, 88339.9621508891, 82.2019999998231, ]
  - [89700, 289.131846420467, 88931.5824317392, 82.2919999998219, ]
  - [90000, 306.553942806268, 89520.0496258251, 82.3819999998206, ]
  - [90300, 298.7048116952, 90103.6737016648, 82.4719999998193, ]
  - [90600, 313.907686792828, 90688.6829993694, 82.561999999818, ]
  - [90900, 308.601955120699, 91274.1651642121, 82.6519999998168, ]
  - [91200, 328.706402164735, 91866.6094963675, 82.7419999998155, ]
  - [91500, 317.987838058248, 92454.8862562765, 82.8319999998142, ]
  - [91800, 302.070627945851, 93036.5984823787, 82.9219999998129, ]
  - [92100, 302.854312744908, 93616.4722832988, 83.0119999998117, ]
  - [92400, 304.029545764808, 94194.3057702895, 83.1019999998104, ]
  - [92700, 293.043615802073, 94776.9822726869, 83.1919999998091, ]
  - [93000, 288.212001787152, 95365.6016907508, 83.2819999998078, ]
  - [93300, 287.995393827296, 95958.0337573126, 83.3719999998065, ]
  - [93600, 292.725170612113, 96557.5996680341, 83.4619999998053, ]
  - [93900, 272.377328973443, 97155.9982783114, 83.551999999804, ]
  - [94200, 285.26041394106, 97763.8673134502, 83.6419999998027, ]
  - [94500, 300.829881613164, 98377.1419262495, 83.7319999998014, ]
  - [94800, 286.726259824646, 99001.9360331614, 83.8219999998002, ]
  - [95100, 299.0658539613, 99630.2994996573, 83.9119999997989, ]
  - [95400, 313.815522845585, 100261.013383887, 84.0019999997976, ]
  - [95700, 304.977067996927, 100884.4198034, 84.0919999997964, ]
  - [96000, 301.329856155237, 101504.1517998, 84.1819999997951, ]
  - [96300, 311.321313521891, 102129.622216683, 84.2719999997938, ]
  - [96600, 307.681337781421, 102758.495985681, 84.3619999997925, ]
  - [96900, 318.111233865826, 103384.35554095, 84.4519999997912, ]
  - [97200, 324.433330056439, 104008.06256559, 84.54199999979, ]
  - [97500, 302.854321321288, 104627.824515597, 84.6319999997887, ]
  - [97800, 300.150753771747, 105241.926053177, 84.7219999997874, ]
  - [98100, 304.771549496994, 105862.509728042, 84.8119999997861, ]
  - [98400, 297.365787433464, 106491.415604844, 84.9019999997849, ]
  - [98700, 283.009132294514, 107118.876196217, 84.9919999997836, ]
  - [99000, 279.970012573177, 107752.565996054, 85.0819999997823, ]
  - [99300, 278.240391174803, 108385.499685469, 85.1719999997811, ]
  - [99600, 292.693609469878, 109026.578467842, 85.2619999997798, ]
  - [99900, 281.673692718565, 109670.190313381, 85.3519999997785, ]
  - [100200, 286.876945645971, 110328.977022577, 85.4419999997772, ]
  - [100300, 296.343525657914, 110550.520686666, 85.4719999997768, ]
...
Loop time of 27.2423 on 8 procs for 100000 steps with 693 atoms

Performance: 15.858 ns/day, 1.513 hours/ns, 3670.766 timesteps/s, 2.544 Matom-step/s
99.9% CPU use with 8 MPI tasks x 1 OpenMP threads

MPI task timing breakdown:
Section |  min time  |  avg time  |  max time  |%varavg| %total
---------------------------------------------------------------
Pair    | 1.8765     | 8.2453     | 14.681     | 159.2 | 30.27
Bond    | 8.6909     | 9.9287     | 10.878     |  18.6 | 36.45
Neigh   | 0.0064588  | 0.0065258  | 0.0065936  |   0.1 |  0.02
Comm    | 1.2781     | 7.8119     | 14.035     | 157.7 | 28.68
Output  | 0.12018    | 0.14447    | 0.16301    |   3.9 |  0.53
Modify  | 0.69009    | 0.84211    | 1.0822     |  11.7 |  3.09
Other   |            | 0.2632     |            |       |  0.97

Nlocal:         86.625 ave          90 max          85 min
Histogram: 3 0 0 0 4 0 0 0 0 1
Nghost:        387.875 ave         391 max         386 min
Histogram: 4 0 0 0 1 0 1 0 0 2
Neighs:        9043.62 ave       15999 max        1942 min
Histogram: 2 0 0 2 0 0 1 1 0 2

Total # of neighbors = 72349
Ave neighs/atom = 104.39971
Ave special neighs/atom = 17.064935
Neighbor list builds = 16
Dangerous builds = 0

# Remove force constraint from cnt_bot to let it jiggle
unfix mysf2

# Redefine Fcnt to avoid referencing mysf2, or skip outputting v_Fcnt
thermo_style custom step temp etotal v_Lcnt
WARNING: New thermo_style command, previous thermo_modify settings will be lost (src/src/output.cpp:904)
thermo 100

# Gradually release force constraint on cnt_bot
fix mysf2 cnt_bot setforce 0.1 0.0 0.0
run 300
Generated 0 of 0 mixed pair_coeff terms from geometric mixing rule
Per MPI rank memory allocation (min/avg/max) = 14.07 | 14.07 | 14.07 Mbytes
   Step          Temp          TotEng         v_Lcnt    
    100300   289.03119      110553.1       85.472       
    100400   289.98476      110774.47      85.501956    
    100500   295.36795      110995.84      85.531826    
    100600   291.99453      111217.49      85.561608    
Loop time of 0.0724355 on 8 procs for 300 steps with 693 atoms

Performance: 17.892 ns/day, 1.341 hours/ns, 4141.616 timesteps/s, 2.870 Matom-step/s
100.0% CPU use with 8 MPI tasks x 1 OpenMP threads

MPI task timing breakdown:
Section |  min time  |  avg time  |  max time  |%varavg| %total
---------------------------------------------------------------
Pair    | 0.0047566  | 0.020439   | 0.035533   |   8.0 | 28.22
Bond    | 0.02628    | 0.029682   | 0.031886   |   0.9 | 40.98
Neigh   | 0          | 0          | 0          |   0.0 |  0.00
Comm    | 0.00353    | 0.018608   | 0.033627   |   8.0 | 25.69
Output  | 0.00044275 | 0.0005007  | 0.00054975 |   0.0 |  0.69
Modify  | 0.0020631  | 0.0024634  | 0.0031104  |   0.6 |  3.40
Other   |            | 0.0007416  |            |       |  1.02

Nlocal:         86.625 ave          91 max          84 min
Histogram: 1 3 1 0 1 0 0 0 1 1
Nghost:        387.875 ave         392 max         383 min
Histogram: 1 0 1 0 1 2 1 0 1 1
Neighs:        8831.25 ave       15517 max        2028 min
Histogram: 2 0 0 2 0 0 1 1 0 2

Total # of neighbors = 70650
Ave neighs/atom = 101.94805
Ave special neighs/atom = 17.064935
Neighbor list builds = 0
Dangerous builds = 0
fix mysf2 cnt_bot setforce 0.01 0.0 0.0
run 300
Generated 0 of 0 mixed pair_coeff terms from geometric mixing rule
Per MPI rank memory allocation (min/avg/max) = 14.07 | 14.07 | 14.07 Mbytes
   Step          Temp          TotEng         v_Lcnt    
    100600   291.99453      111217.49      85.561608    
    100700   286.76034      111438.89      85.591342    
    100800   290.13486      111659.1       85.621068    
    100900   300.23789      111878.26      85.650785    
Loop time of 0.073296 on 8 procs for 300 steps with 693 atoms

Performance: 17.682 ns/day, 1.357 hours/ns, 4092.993 timesteps/s, 2.836 Matom-step/s
100.0% CPU use with 8 MPI tasks x 1 OpenMP threads

MPI task timing breakdown:
Section |  min time  |  avg time  |  max time  |%varavg| %total
---------------------------------------------------------------
Pair    | 0.0047656  | 0.020455   | 0.03599    |   7.9 | 27.91
Bond    | 0.026165   | 0.029673   | 0.031827   |   1.0 | 40.48
Neigh   | 0          | 0          | 0          |   0.0 |  0.00
Comm    | 0.0033792  | 0.019441   | 0.034102   |   7.7 | 26.52
Output  | 0.00043534 | 0.00049459 | 0.00054766 |   0.0 |  0.67
Modify  | 0.0020765  | 0.0024934  | 0.0031492  |   0.6 |  3.40
Other   |            | 0.000739   |            |       |  1.01

Nlocal:         86.625 ave          90 max          85 min
Histogram: 2 0 4 0 0 0 0 0 1 1
Nghost:        387.875 ave         390 max         383 min
Histogram: 1 0 0 0 0 2 0 2 0 3
Neighs:        8823.75 ave       15665 max        2021 min
Histogram: 2 0 0 2 0 0 2 0 0 2

Total # of neighbors = 70590
Ave neighs/atom = 101.86147
Ave special neighs/atom = 17.064935
Neighbor list builds = 0
Dangerous builds = 0
fix mysf2 cnt_bot setforce 0.0 0.0 0.0
run 300
Generated 0 of 0 mixed pair_coeff terms from geometric mixing rule
Per MPI rank memory allocation (min/avg/max) = 14.07 | 14.07 | 14.07 Mbytes
   Step          Temp          TotEng         v_Lcnt    
    100900   300.23789      111878.26      85.650785    
    101000   290.21616      112097.62      85.680498    
    101100   298.61336      112316.8       85.71021     
    101200   295.92386      112533.89      85.739923    
Loop time of 0.0742968 on 8 procs for 300 steps with 693 atoms

Performance: 17.444 ns/day, 1.376 hours/ns, 4037.860 timesteps/s, 2.798 Matom-step/s
100.0% CPU use with 8 MPI tasks x 1 OpenMP threads

MPI task timing breakdown:
Section |  min time  |  avg time  |  max time  |%varavg| %total
---------------------------------------------------------------
Pair    | 0.0049226  | 0.02045    | 0.036515   |   8.0 | 27.53
Bond    | 0.026248   | 0.029678   | 0.032406   |   1.1 | 39.95
Neigh   | 0          | 0          | 0          |   0.0 |  0.00
Comm    | 0.003381   | 0.02047    | 0.034727   |   7.7 | 27.55
Output  | 0.00043024 | 0.00048807 | 0.0005358  |   0.0 |  0.66
Modify  | 0.0020342  | 0.0024568  | 0.0031238  |   0.6 |  3.31
Other   |            | 0.0007528  |            |       |  1.01

Nlocal:         86.625 ave          91 max          84 min
Histogram: 1 2 1 0 2 1 0 0 0 1
Nghost:        387.875 ave         391 max         382 min
Histogram: 1 0 0 0 1 0 2 2 1 1
Neighs:         8811.5 ave       15805 max        2075 min
Histogram: 2 0 0 2 0 0 2 0 0 2

Total # of neighbors = 70492
Ave neighs/atom = 101.72006
Ave special neighs/atom = 17.064935
Neighbor list builds = 0
Dangerous builds = 0
unfix mysf2
# Optionally, add a short NVT equilibration
fix mynvt2 cnt_bot nvt temp 300 300 500
run 300
Generated 0 of 0 mixed pair_coeff terms from geometric mixing rule
WARNING: One or more atoms are time integrated more than once (src/src/modify.cpp:296)
Per MPI rank memory allocation (min/avg/max) = 14.07 | 14.07 | 14.07 Mbytes
   Step          Temp          TotEng         v_Lcnt    
    101200   295.92386      112533.89      85.739923    
    101300   1957.3568      112619.54      84.806268    
    101400   2685.9438      112598.92      83.817649    
    101500   3171.8855      112459.81      83.534407    
Loop time of 0.0755934 on 8 procs for 300 steps with 693 atoms

Performance: 17.144 ns/day, 1.400 hours/ns, 3968.602 timesteps/s, 2.750 Matom-step/s
100.0% CPU use with 8 MPI tasks x 1 OpenMP threads

MPI task timing breakdown:
Section |  min time  |  avg time  |  max time  |%varavg| %total
---------------------------------------------------------------
Pair    | 0.0047227  | 0.020506   | 0.036449   |   8.0 | 27.13
Bond    | 0.025712   | 0.029713   | 0.032413   |   1.1 | 39.31
Neigh   | 0.0010384  | 0.0010499  | 0.0010606  |   0.0 |  1.39
Comm    | 0.0034812  | 0.020101   | 0.035261   |   7.7 | 26.59
Output  | 0.00042877 | 0.00049055 | 0.00054523 |   0.0 |  0.65
Modify  | 0.0025179  | 0.0029603  | 0.0036442  |   0.6 |  3.92
Other   |            | 0.0007725  |            |       |  1.02

Nlocal:         86.625 ave          89 max          85 min
Histogram: 2 0 2 0 0 2 0 1 0 1
Nghost:        387.875 ave         390 max         384 min
Histogram: 1 0 0 1 0 0 3 0 1 2
Neighs:         8842.5 ave       15782 max        1990 min
Histogram: 2 0 0 2 0 0 2 0 0 2

Total # of neighbors = 70740
Ave neighs/atom = 102.07792
Ave special neighs/atom = 17.064935
Neighbor list builds = 3
Dangerous builds = 0
unfix mynvt2

# Optional: minimize or equilibrate
minimize 1.0e-4 1.0e-6 100 1000
Generated 0 of 0 mixed pair_coeff terms from geometric mixing rule
Per MPI rank memory allocation (min/avg/max) = 15.2 | 15.2 | 15.2 Mbytes
   Step          Temp          TotEng         v_Lcnt    
    101500   3171.8855      112459.81      83.534407    
    101600   3171.8855      75418.337      77.322923    
Loop time of 0.0603242 on 8 procs for 100 steps with 693 atoms

100.0% CPU use with 8 MPI tasks x 1 OpenMP threads

Minimization stats:
  Stopping criterion = max iterations
  Energy initial, next-to-last, final = 
       105917.09244949   69199.6835780228   68875.6235303608
  Force two-norm initial, final = 2963.1195 611.37402
  Force max component initial, final = 566.23481 111.13004
  Final line search alpha, max atom move = 0.00074955645 0.083298238
  Iterations, force evaluations = 100 124

MPI task timing breakdown:
Section |  min time  |  avg time  |  max time  |%varavg| %total
---------------------------------------------------------------
Pair    | 0.0049525  | 0.021304   | 0.039167   |   8.2 | 35.32
Bond    | 0.013169   | 0.015151   | 0.016561   |   0.8 | 25.12
Neigh   | 0.0024839  | 0.0025005  | 0.0025145  |   0.0 |  4.15
Comm    | 0.0017185  | 0.019747   | 0.035551   |   8.3 | 32.73
Output  | 0.00019046 | 0.00022284 | 0.00024875 |   0.0 |  0.37
Modify  | 1.8942e-05 | 2.1654e-05 | 2.4067e-05 |   0.0 |  0.04
Other   |            | 0.001377   |            |       |  2.28

Nlocal:         86.625 ave          90 max          85 min
Histogram: 3 0 2 0 1 0 0 0 1 1
Nghost:        393.875 ave         400 max         389 min
Histogram: 3 1 0 0 0 1 1 0 0 2
Neighs:        9470.38 ave       17904 max        2051 min
Histogram: 2 0 1 1 0 1 1 0 1 1

Total # of neighbors = 75763
Ave neighs/atom = 109.32612
Ave special neighs/atom = 17.064935
Neighbor list builds = 6
Dangerous builds = 0
# or
# fix mynvt2 cnt_bot nvt temp 300 300 100
# run 2000
# unfix mynvt2

run 10000
Generated 0 of 0 mixed pair_coeff terms from geometric mixing rule
Per MPI rank memory allocation (min/avg/max) = 14.07 | 14.07 | 14.07 Mbytes
   Step          Temp          TotEng         v_Lcnt    
    101600   3171.8855      75418.337      77.322923    
    101700   2207.2024      75281.325      77.124556    
    101800   2290.9476      75289.221      76.679882    
    101900   2772.1776      75290.645      76.094053    
    102000   2287.191       75233.516      75.655802    
    102100   2929.4737      75096.396      75.535241    
    102200   3194.8573      74848.8        75.620839    
    102300   3163.5984      74556.039      75.687788    
    102400   3742.1153      74197.338      75.590873    
    102500   3742.8218      73771.939      75.368863    
    102600   4121.9947      73284.093      75.156011    
    102700   4290.3378      72685.209      75.014495    
    102800   4524.3894      72006.584      74.868255    
    102900   4725.3084      71273.098      74.638664    
    103000   4845.2481      70482.925      74.367062    
    103100   4951.9476      69623.685      74.145431    
    103200   5069.3523      68674.599      73.998217    
    103300   5124.4516      67673.358      73.867735    
    103400   5248.0393      66620.877      73.715691    
    103500   5239.1979      65526.996      73.564811    
    103600   5236.1576      64407.88       73.427279    
    103700   5228.5959      63276.775      73.264283    
    103800   5204.6765      62141.595      73.048552    
    103900   5194.7114      61014.405      72.801471    
    104000   5149.76        59874.33       72.548007    
    104100   5088.2241      58744.59       72.296264    
    104200   5074.0476      57596.304      72.066622    
    104300   4968.47        56439.073      71.879672    
    104400   4936.3036      55282.469      71.718238    
    104500   4881.8417      54125.857      71.554642    
    104600   4776.9046      52984.094      71.396013    
    104700   4718.5838      51854.593      71.255325    
    104800   4616.7024      50743.357      71.107212    
    104900   4551.0117      49667.308      70.921909    
    105000   4484.9327      48613.03       70.716374    
    105100   4431.2117      47569.653      70.523847    
    105200   4364.5987      46535.445      70.339489    
    105300   4289.3379      45523.541      70.142999    
    105400   4226.3038      44528.664      69.946382    
    105500   4143.8703      43543.882      69.771538    
    105600   4070.7429      42576.714      69.606963    
    105700   4010.991       41628.929      69.431879    
    105800   3927.223       40700.656      69.257185    
    105900   3862.9676      39787.539      69.101196    
    106000   3779.6198      38891.638      68.950053    
    106100   3711.4562      38023.406      68.782936    
    106200   3642.6301      37175.516      68.611169    
    106300   3576.0512      36343.252      68.453984    
    106400   3506.3227      35528.114      68.300868    
    106500   3446.0419      34735.406      68.135028    
    106600   3371.9374      33960.289      67.970019    
    106700   3305.3575      33198.85       67.827144    
    106800   3236.6792      32450.108      67.698576    
    106900   3166.9478      31721.039      67.564795    
    107000   3096.3212      31011.564      67.426675    
    107100   3034.9615      30319.157      67.293282    
    107200   2965.5662      29644.952      67.158545    
    107300   2910.059       28991.889      67.014777    
    107400   2853.5362      28356.652      66.869441    
    107500   2803.8573      27737.09       66.728094    
    107600   2749.5442      27134.91       66.581701    
    107700   2699.7511      26550.841      66.427745    
    107800   2647.3303      25980.782      66.281807    
    107900   2598.3198      25422.055      66.152798    
    108000   2549.6315      24877.303      66.028414    
    108100   2508.6816      24347.535      65.898942    
    108200   2465.7702      23829.876      65.772859    
    108300   2427.9582      23321.149      65.656167    
    108400   2386.8337      22821.758      65.538334    
    108500   2345.7275      22333.971      65.411423    
    108600   2306.6164      21857.441      65.282728    
    108700   2268.2375      21391.433      65.157225    
    108800   2226.3438      20938.865      65.026912    
    108900   2193.754       20499.277      64.887743    
    109000   2155.7084      20069.038      64.749734    
    109100   2119.0996      19646.495      64.621289    
    109200   2082.5925      19232.477      64.498637    
    109300   2048.8054      18829.097      64.37703     
    109400   2015.0546      18436.207      64.258125    
    109500   1983.7567      18053.22       64.141481    
    109600   1954.2589      17678.904      64.02186     
    109700   1922.822       17312.529      63.898726    
    109800   1892.0545      16953.87       63.776789    
    109900   1864.3338      16603.059      63.655501    
    110000   1833.5408      16262.134      63.529627    
    110100   1807.7862      15930.411      63.400799    
    110200   1780.2223      15604.996      63.276855    
    110300   1753.4413      15284.788      63.159242    
    110400   1726.2608      14970.644      63.042017    
    110500   1699.3071      14663.812      62.923523    
    110600   1673.4752      14363.899      62.808204    
    110700   1646.9372      14070.193      62.696553    
    110800   1621.3106      13782.831      62.583556    
    110900   1596.2339      13501.514      62.467854    
    111000   1569.7187      13226.182      62.353151    
    111100   1544.6822      12957.077      62.240144    
    111200   1520.3013      12694.669      62.125827    
    111300   1496.3495      12438.548      62.011044    
    111400   1472.0727      12187.612      61.900301    
    111500   1448.5934      11941.411      61.793622    
    111600   1424.0699      11701.004      61.686323    
Loop time of 3.01694 on 8 procs for 10000 steps with 693 atoms

Performance: 14.319 ns/day, 1.676 hours/ns, 3314.611 timesteps/s, 2.297 Matom-step/s
100.0% CPU use with 8 MPI tasks x 1 OpenMP threads

MPI task timing breakdown:
Section |  min time  |  avg time  |  max time  |%varavg| %total
---------------------------------------------------------------
Pair    | 0.20425    | 0.81863    | 1.6209     |  51.8 | 27.13
Bond    | 0.7788     | 0.98298    | 1.2521     |  18.8 | 32.58
Neigh   | 0.0098107  | 0.010454   | 0.011091   |   0.6 |  0.35
Comm    | 0.20484    | 1.0781     | 1.8436     |  49.7 | 35.73
Output  | 0.015417   | 0.017251   | 0.019126   |   1.0 |  0.57
Modify  | 0.070722   | 0.085581   | 0.10972    |   3.8 |  2.84
Other   |            | 0.02399    |            |       |  0.80

Nlocal:         86.625 ave         120 max          54 min
Histogram: 4 0 0 0 0 0 0 0 0 4
Nghost:        442.375 ave         546 max         340 min
Histogram: 4 0 0 0 0 0 0 0 0 4
Neighs:        11587.6 ave       27214 max        2159 min
Histogram: 2 1 1 1 1 0 1 0 0 1

Total # of neighbors = 92701
Ave neighs/atom = 133.76768
Ave special neighs/atom = 17.064935
Neighbor list builds = 22
Dangerous builds = 0
Total wall time: 0:00:30
